SystemLabel      Sistem
NumberOfAtoms    N
NumberOfSpecies  N

SpinPolarized		True
SingleExcitation	True

%block ProjectedDensityOfStates
-9.00 2.0 0.1 3000 eV
%endblock ProjectedDensityOfStates

%block ChemicalSpeciesLabel

%endblock ChemicalSpeciesLabel

LatticeConstant VECTOR  Ang
%block LatticeVectors
2.000   0.000000  0.000
0.000   2.866025  0.000
0.000   0.000000  1.000
%endblock LatticeVectors

%block kgrid_Monkhorst_Pack
 1   0   0   0.0
 0   1   0   0.0
 0   0   9   0.0
%endblock kgrid_Monkhorst_Pack

%block BandLines
1  0.000  0.000  0.000  \Gamma
30 0.000  0.000  1.000  X
%endblock BandLines

AtomicCoordinatesFormat NotScaledCartesianAng
AtomCoorFormatOut   NotScaledCartesianAng
%block AtomicCoordinatesAndAtomicSpecies
